; benchmark generated from python API
(set-info :status unknown)
(declare-datatypes ((IntState 0)) (((Mk1 (val1 Int)) (Mk2 (val2 Int)))))
 (declare-fun c_main_~k~6 () Int)
(declare-fun c_main_~j~6 () Int)
(declare-fun c_main_~i~6 () Int)
(assert
 (let (($x82 (exists ((main_~i~6_st IntState) (val!138 Int) )(let ((?x56 (val2 main_~i~6_st)))
 (let (($x153 (<= ?x56 4)))
 (let (($x34 (and (<= c_main_~j~6 (+ (* 2 ?x56) 1)) $x153 (<= ?x56 c_main_~k~6))))
 (let (($x52 (not (= main_~i~6_st (Mk1 val!138)))))
 (and $x52 $x34))))))
 ))
 (let ((?x125 (* 2 c_main_~i~6)))
 (let (($x102 (<= c_main_~j~6 ?x125)))
 (let (($x91 (<= c_main_~i~6 4)))
 (let (($x41 (<= c_main_~j~6 (+ ?x125 1))))
 (let (($x90 (exists ((v_nnf_78 Int) )(let (($x152 (<= v_nnf_78 4)))
 (let (($x116 (<= c_main_~j~6 (+ (* 2 v_nnf_78) 1))))
 (and (<= (+ v_nnf_78 2) c_main_~k~6) $x116 $x152))))
 ))
 (and (and $x102 $x91 $x90) (not (and $x41 $x91 $x102 $x82))))))))))
(check-sat)
